NAME : eil51.470.tour
COMMENT : Cost = 159_470
COMMENT : Found by LKH [Keld Helsgaun] Thu Nov 16 20:48:27 2017
TYPE : TOUR
DIMENSION : 53
TOUR_SECTION
1
32
11
38
5
37
15
45
33
39
10
49
9
30
34
21
50
16
53
27
6
14
25
13
41
40
19
42
44
17
4
18
47
12
46
51
52
22
2
29
20
35
36
3
28
31
8
26
7
43
24
23
48
-1
EOF
